solution status: optimal solution found
objective value:                      211879.59364286
d11(0,0)                                            1 	(obj:0)
d11(1,1)                                            1 	(obj:0)
d11(1,2)                                            1 	(obj:0)
d11(1,3)                                            1 	(obj:0)
d11(2,4)                                            1 	(obj:0)
d11(2,5)                                            1 	(obj:0)
d11(2,7)                                            1 	(obj:0)
d11(2,8)                                            1 	(obj:0)
d11(2,10)                                           1 	(obj:0)
d11(2,11)                                           1 	(obj:0)
d11(3,13)                                           1 	(obj:0)
d11(3,14)                                           1 	(obj:0)
d11(3,16)                                           1 	(obj:0)
d11(3,17)                                           1 	(obj:0)
d11(3,19)                                           1 	(obj:0)
d11(3,20)                                           1 	(obj:0)
d11(3,22)                                           1 	(obj:0)
d11(3,23)                                           1 	(obj:0)
d11(3,25)                                           1 	(obj:0)
d11(3,26)                                           1 	(obj:0)
d11(3,28)                                           1 	(obj:0)
d11(3,29)                                           1 	(obj:0)
d11(3,31)                                           1 	(obj:0)
d11(3,32)                                           1 	(obj:0)
d11(3,34)                                           1 	(obj:0)
d11(3,35)                                           1 	(obj:0)
d11(3,37)                                           1 	(obj:0)
d11(3,38)                                           1 	(obj:0)
d11(4,40)                                           1 	(obj:0)
d11(4,41)                                           1 	(obj:0)
d11(4,42)                                           1 	(obj:0)
d11(4,43)                                           1 	(obj:0)
d11(4,44)                                           1 	(obj:0)
d11(4,45)                                           1 	(obj:0)
d11(4,46)                                           1 	(obj:0)
d11(4,47)                                           1 	(obj:0)
d11(4,48)                                           1 	(obj:0)
d11(4,49)                                           1 	(obj:0)
d11(4,50)                                           1 	(obj:0)
d11(4,51)                                           1 	(obj:0)
d11(4,52)                                           1 	(obj:0)
d11(4,53)                                           1 	(obj:0)
d11(4,54)                                           1 	(obj:0)
d11(4,55)                                           1 	(obj:0)
d11(4,56)                                           1 	(obj:0)
d11(4,57)                                           1 	(obj:0)
d11(4,58)                                           1 	(obj:0)
d11(4,59)                                           1 	(obj:0)
d11(4,60)                                           1 	(obj:0)
d11(4,61)                                           1 	(obj:0)
d11(4,62)                                           1 	(obj:0)
d11(4,63)                                           1 	(obj:0)
d11(4,64)                                           1 	(obj:0)
d11(4,65)                                           1 	(obj:0)
d11(4,66)                                           1 	(obj:0)
d11(4,67)                                           1 	(obj:0)
d11(4,68)                                           1 	(obj:0)
d11(4,69)                                           1 	(obj:0)
d11(4,70)                                           1 	(obj:0)
d11(4,71)                                           1 	(obj:0)
d11(4,72)                                           1 	(obj:0)
d11(4,73)                                           1 	(obj:0)
d11(4,74)                                           1 	(obj:0)
d11(4,75)                                           1 	(obj:0)
d11(4,76)                                           1 	(obj:0)
d11(4,77)                                           1 	(obj:0)
d11(4,78)                                           1 	(obj:0)
d11(4,79)                                           1 	(obj:0)
d11(4,80)                                           1 	(obj:0)
d11(4,81)                                           1 	(obj:0)
d11(4,82)                                           1 	(obj:0)
d11(4,83)                                           1 	(obj:0)
d11(4,84)                                           1 	(obj:0)
d11(4,85)                                           1 	(obj:0)
d11(4,86)                                           1 	(obj:0)
d11(4,87)                                           1 	(obj:0)
d11(4,88)                                           1 	(obj:0)
d11(4,89)                                           1 	(obj:0)
d11(4,90)                                           1 	(obj:0)
d11(4,91)                                           1 	(obj:0)
d11(4,92)                                           1 	(obj:0)
d11(4,93)                                           1 	(obj:0)
d11(4,94)                                           1 	(obj:0)
d11(4,95)                                           1 	(obj:0)
d11(4,96)                                           1 	(obj:0)
d11(4,97)                                           1 	(obj:0)
d11(4,98)                                           1 	(obj:0)
d11(4,99)                                           1 	(obj:0)
d11(4,100)                                          1 	(obj:0)
d11(4,101)                                          1 	(obj:0)
d11(4,102)                                          1 	(obj:0)
d11(4,103)                                          1 	(obj:0)
d11(4,104)                                          1 	(obj:0)
d11(4,105)                                          1 	(obj:0)
d11(4,106)                                          1 	(obj:0)
d11(4,107)                                          1 	(obj:0)
d11(4,108)                                          1 	(obj:0)
d11(4,109)                                          1 	(obj:0)
d11(4,110)                                          1 	(obj:0)
d11(4,111)                                          1 	(obj:0)
d11(4,112)                                          1 	(obj:0)
d11(4,113)                                          1 	(obj:0)
d11(4,114)                                          1 	(obj:0)
d11(4,115)                                          1 	(obj:0)
d11(4,116)                                          1 	(obj:0)
d11(4,117)                                          1 	(obj:0)
d11(4,118)                                          1 	(obj:0)
d11(4,119)                                          1 	(obj:0)
d11(4,120)                                          1 	(obj:0)
d21(4,40)                                           1 	(obj:0)
d21(4,41)                                           1 	(obj:0)
d21(4,42)                                           1 	(obj:0)
d21(4,43)                                           1 	(obj:0)
d21(4,44)                                           1 	(obj:0)
d21(4,46)                                           1 	(obj:0)
d21(4,49)                                           1 	(obj:0)
d21(4,50)                                           1 	(obj:0)
d21(4,52)                                           1 	(obj:0)
d21(4,53)                                           1 	(obj:0)
d21(4,58)                                           1 	(obj:0)
d21(4,67)                                           1 	(obj:0)
d21(4,68)                                           1 	(obj:0)
d21(4,70)                                           1 	(obj:0)
d21(4,71)                                           1 	(obj:0)
d21(4,73)                                           1 	(obj:0)
d21(4,76)                                           1 	(obj:0)
d21(4,77)                                           1 	(obj:0)
d21(4,79)                                           1 	(obj:0)
d21(4,94)                                           1 	(obj:0)
STE(1,1)                             8786.67041000006 	(obj:0)
STE(0,0)                                        15750 	(obj:0)
STE(1,2)                             9783.43641333332 	(obj:0)
STE(1,3)                             11000.8886166667 	(obj:0)
STE(2,4)                             5312.45220333338 	(obj:0)
STE(2,5)                             6309.21820666667 	(obj:0)
STE(2,6)                             7526.67041000006 	(obj:0)
STE(2,7)                             6309.21820666664 	(obj:0)
STE(2,8)                             7305.98420999993 	(obj:0)
STE(2,9)                             8523.43641333332 	(obj:0)
STE(2,10)                            7526.67041000005 	(obj:0)
STE(2,11)                            8523.43641333334 	(obj:0)
STE(2,12)                            9740.88861666673 	(obj:0)
STE(3,13)                             1838.2339966667 	(obj:0)
STE(3,14)                            2834.99999999999 	(obj:0)
STE(3,15)                            4052.45220333338 	(obj:0)
STE(3,16)                            2834.99999999999 	(obj:0)
STE(3,17)                            3831.76600333328 	(obj:0)
STE(3,18)                            5049.21820666667 	(obj:0)
STE(3,19)                            4052.45220333338 	(obj:0)
STE(3,20)                            5049.21820666667 	(obj:0)
STE(3,21)                            6266.67041000006 	(obj:0)
STE(3,22)                            2834.99999999995 	(obj:0)
STE(3,23)                            3831.76600333325 	(obj:0)
STE(3,24)                            5049.21820666664 	(obj:0)
STE(3,25)                            3831.76600333325 	(obj:0)
STE(3,26)                            4828.53200666654 	(obj:0)
STE(3,27)                            6045.98420999993 	(obj:0)
STE(3,28)                            5049.21820666664 	(obj:0)
STE(3,29)                            6045.98420999993 	(obj:0)
STE(3,30)                            7263.43641333332 	(obj:0)
STE(3,31)                            4052.45220333336 	(obj:0)
STE(3,32)                            5049.21820666666 	(obj:0)
STE(3,33)                            6266.67041000005 	(obj:0)
STE(3,34)                            5049.21820666666 	(obj:0)
STE(3,35)                            6045.98420999995 	(obj:0)
STE(3,36)                            7263.43641333334 	(obj:0)
STE(3,37)                            6266.67041000005 	(obj:0)
STE(3,38)                            7263.43641333334 	(obj:0)
STE(3,39)                            8480.88861666673 	(obj:0)
STE(4,40)                           -1635.98420999997 	(obj:0)
STE(4,41)                           -639.218206666682 	(obj:0)
STE(4,42)                            578.233996666696 	(obj:0)
STE(4,43)                           -639.218206666681 	(obj:0)
STE(4,44)                             357.54779666661 	(obj:0)
STE(4,45)                            1574.99999999999 	(obj:0)
STE(4,46)                            578.233996666709 	(obj:0)
STE(4,47)                                        1575 	(obj:0)
STE(4,48)                            2792.45220333338 	(obj:0)
STE(4,49)                           -639.218206666682 	(obj:0)
STE(4,50)                            357.547796666609 	(obj:0)
STE(4,51)                            1574.99999999999 	(obj:0)
STE(4,52)                            357.547796666609 	(obj:0)
STE(4,53)                             1354.3137999999 	(obj:0)
STE(4,54)                            2571.76600333328 	(obj:0)
STE(4,55)                                        1575 	(obj:0)
STE(4,56)                            2571.76600333329 	(obj:0)
STE(4,57)                            3789.21820666667 	(obj:0)
STE(4,58)                             578.23399666671 	(obj:0)
STE(4,59)                                        1575 	(obj:0)
STE(4,60)                            2792.45220333338 	(obj:0)
STE(4,61)                                        1575 	(obj:0)
STE(4,62)                            2571.76600333329 	(obj:0)
STE(4,63)                            3789.21820666667 	(obj:0)
STE(4,64)                            2792.45220333339 	(obj:0)
STE(4,65)                            3789.21820666668 	(obj:0)
STE(4,66)                            5006.67041000006 	(obj:0)
STE(4,67)                           -639.218206666715 	(obj:0)
STE(4,68)                            357.547796666576 	(obj:0)
STE(4,69)                            1574.99999999995 	(obj:0)
STE(4,70)                            357.547796666576 	(obj:0)
STE(4,71)                            1354.31379999987 	(obj:0)
STE(4,72)                            2571.76600333325 	(obj:0)
STE(4,73)                            1574.99999999997 	(obj:0)
STE(4,74)                            2571.76600333326 	(obj:0)
STE(4,75)                            3789.21820666664 	(obj:0)
STE(4,76)                            357.547796666576 	(obj:0)
STE(4,77)                            1354.31379999987 	(obj:0)
STE(4,78)                            2571.76600333325 	(obj:0)
STE(4,79)                            1354.31379999987 	(obj:0)
STE(4,80)                            2351.07980333316 	(obj:0)
STE(4,81)                            3568.53200666654 	(obj:0)
STE(4,82)                            2571.76600333326 	(obj:0)
STE(4,83)                            3568.53200666655 	(obj:0)
STE(4,84)                            4785.98420999993 	(obj:0)
STE(4,85)                            1574.99999999997 	(obj:0)
STE(4,86)                            2571.76600333326 	(obj:0)
STE(4,87)                            3789.21820666664 	(obj:0)
STE(4,88)                            2571.76600333326 	(obj:0)
STE(4,89)                            3568.53200666655 	(obj:0)
STE(4,90)                            4785.98420999993 	(obj:0)
STE(4,91)                            3789.21820666665 	(obj:0)
STE(4,92)                            4785.98420999994 	(obj:0)
STE(4,93)                            6003.43641333332 	(obj:0)
STE(4,94)                            578.233996666696 	(obj:0)
STE(4,95)                            1574.99999999999 	(obj:0)
STE(4,96)                            2792.45220333336 	(obj:0)
STE(4,97)                            1574.99999999999 	(obj:0)
STE(4,98)                            2571.76600333328 	(obj:0)
STE(4,99)                            3789.21820666666 	(obj:0)
STE(4,100)                           2792.45220333338 	(obj:0)
STE(4,101)                           3789.21820666667 	(obj:0)
STE(4,102)                           5006.67041000005 	(obj:0)
STE(4,103)                           1574.99999999999 	(obj:0)
STE(4,104)                           2571.76600333328 	(obj:0)
STE(4,105)                           3789.21820666666 	(obj:0)
STE(4,106)                           2571.76600333328 	(obj:0)
STE(4,107)                           3568.53200666657 	(obj:0)
STE(4,108)                           4785.98420999995 	(obj:0)
STE(4,109)                           3789.21820666667 	(obj:0)
STE(4,110)                           4785.98420999996 	(obj:0)
STE(4,111)                           6003.43641333334 	(obj:0)
STE(4,112)                           2792.45220333338 	(obj:0)
STE(4,113)                           3789.21820666667 	(obj:0)
STE(4,114)                           5006.67041000005 	(obj:0)
STE(4,115)                           3789.21820666667 	(obj:0)
STE(4,116)                           4785.98420999996 	(obj:0)
STE(4,117)                           6003.43641333334 	(obj:0)
STE(4,118)                           5006.67041000006 	(obj:0)
STE(4,119)                           6003.43641333335 	(obj:0)
STE(4,120)                           7220.88861666673 	(obj:0)
y1(4,100)                                 1992.796386 	(obj:0)
y1(4,101)                            1095.70698300004 	(obj:0)
y1(4,103)                                 1992.796386 	(obj:0)
y1(4,104)                            1095.70698300004 	(obj:0)
y1(4,106)                                 1992.796386 	(obj:0)
y1(4,107)                            1095.70698300004 	(obj:0)
y1(4,109)                                 1992.796386 	(obj:0)
y1(4,110)                            1095.70698300004 	(obj:0)
y1(4,112)                                 1992.796386 	(obj:0)
y1(4,113)                            1095.70698300004 	(obj:0)
y1(4,115)                                 1992.796386 	(obj:0)
y1(4,116)                            1095.70698300004 	(obj:0)
y1(4,118)                                 1992.796386 	(obj:0)
y1(4,119)                            1095.70698300004 	(obj:0)
AVE(3)                                3399.3204933139 	(obj:0)
AVE(4)                               3353.21046544222 	(obj:0)
WG(3)                                 3399.3204933139 	(obj:10)
WG(4)                                3353.21046544222 	(obj:10)
BG(1)                                7700.20431428564 	(obj:10)
BG(2)                                      4495.91835 	(obj:10)
BG(3)                                 1096.5978566861 	(obj:10)
BG(4)                                1142.70788455781 	(obj:10)
WB(1)                                3134.60043707458 	(obj:0)
AVE(1)                               3134.60043707458 	(obj:0)
WB(2)                                3326.45170866643 	(obj:0)
AVE(2)                               3326.45170866643 	(obj:0)
y1(1,1)                              5132.99663099995 	(obj:0)
y1(1,2)                              4235.90722800001 	(obj:0)
y1(1,3)                              3140.20024499994 	(obj:0)
y1(2,4)                              1992.79638600001 	(obj:0)
y1(2,5)                              1095.70698300005 	(obj:0)
y1(2,7)                              1992.79638600001 	(obj:0)
y1(2,8)                              1095.70698300005 	(obj:0)
y1(2,10)                             1992.79638600001 	(obj:0)
y1(2,11)                             1095.70698300005 	(obj:0)
y1(3,13)                             1992.79638600001 	(obj:0)
y1(3,14)                             1095.70698300005 	(obj:0)
y1(3,16)                             1992.79638600001 	(obj:0)
y1(3,17)                             1095.70698300005 	(obj:0)
y1(3,19)                             1992.79638600001 	(obj:0)
y1(3,20)                             1095.70698300005 	(obj:0)
y1(3,22)                             1992.79638600001 	(obj:0)
y1(3,23)                             1095.70698300005 	(obj:0)
y1(3,25)                             1992.79638600001 	(obj:0)
y1(3,26)                             1095.70698300005 	(obj:0)
y1(3,28)                             1992.79638600001 	(obj:0)
y1(3,29)                             1095.70698300005 	(obj:0)
y1(3,31)                             1992.79638600001 	(obj:0)
y1(3,32)                             1095.70698300005 	(obj:0)
y1(3,34)                             1992.79638600001 	(obj:0)
y1(3,35)                             1095.70698300005 	(obj:0)
y1(3,37)                             1992.79638600001 	(obj:0)
y1(3,38)                             1095.70698300005 	(obj:0)
y1(4,40)                                  1992.796386 	(obj:0)
y1(4,41)                             1095.70698300004 	(obj:0)
y1(4,43)                                  1992.796386 	(obj:0)
y1(4,44)                             1095.70698300004 	(obj:0)
y1(4,46)                                  1992.796386 	(obj:0)
y1(4,47)                             1095.70698300004 	(obj:0)
y1(4,49)                                  1992.796386 	(obj:0)
y1(4,50)                             1095.70698300004 	(obj:0)
y1(4,52)                                  1992.796386 	(obj:0)
y1(4,53)                             1095.70698300004 	(obj:0)
y1(4,55)                                  1992.796386 	(obj:0)
y1(4,56)                             1095.70698300004 	(obj:0)
y1(4,58)                                  1992.796386 	(obj:0)
y1(4,59)                             1095.70698300004 	(obj:0)
y1(4,61)                                  1992.796386 	(obj:0)
y1(4,62)                             1095.70698300004 	(obj:0)
y1(4,64)                                  1992.796386 	(obj:0)
y1(4,65)                             1095.70698300004 	(obj:0)
y1(4,67)                                  1992.796386 	(obj:0)
y1(4,68)                             1095.70698300004 	(obj:0)
y1(4,70)                                  1992.796386 	(obj:0)
y1(4,71)                             1095.70698300004 	(obj:0)
y1(4,73)                                  1992.796386 	(obj:0)
y1(4,74)                             1095.70698300004 	(obj:0)
y1(4,76)                                  1992.796386 	(obj:0)
y1(4,77)                             1095.70698300004 	(obj:0)
y1(4,79)                                  1992.796386 	(obj:0)
y1(4,80)                             1095.70698300004 	(obj:0)
y1(4,82)                                  1992.796386 	(obj:0)
y1(4,83)                             1095.70698300004 	(obj:0)
y1(4,85)                                  1992.796386 	(obj:0)
y1(4,86)                             1095.70698300004 	(obj:0)
y1(4,88)                                  1992.796386 	(obj:0)
y1(4,89)                             1095.70698300004 	(obj:0)
y1(4,91)                                  1992.796386 	(obj:0)
y1(4,92)                             1095.70698300004 	(obj:0)
y1(4,94)                                  1992.796386 	(obj:0)
y1(4,95)                             1095.70698300004 	(obj:0)
y1(4,97)                                  1992.796386 	(obj:0)
y1(4,98)                             1095.70698300004 	(obj:0)
